
===== New CPLEX run =====
Instance: /home/yorig/tuner/mpils-tests/instances/miplib/easy/lotsize.mps
Config: /scratch/yorig/mpils-results-grid-seconds-5-no-mip-start/easy/16proc/seed-3/4_lotsize_seed-3_20260502_223218/iterated_local_search/run_3_worker_9/ils_config_7223114526243733677.prm
========================

Selected objective sense:  MINIMIZE
Selected objective  name:  R1921
Selected RHS        name:  B
Selected bound      name:  BOUND
Version identifier: 22.1.2.0 | 2024-11-26 | 0edbb82fd
CPXPARAM_Threads                                 8
CPXPARAM_Parallel                                1
CPXPARAM_MIP_Strategy_SubAlgorithm               2
CPXPARAM_MIP_Strategy_VariableSelect             2
CPXPARAM_MIP_Cuts_FlowCovers                     2
CPXPARAM_MIP_Cuts_Implied                        1
CPXPARAM_MIP_Limits_GomoryCand                   150
CPXPARAM_MIP_Cuts_Gomory                         -1
CPXPARAM_MIP_Cuts_PathCut                        -1
CPXPARAM_MIP_Cuts_Disjunctive                    2
CPXPARAM_MIP_Strategy_BBInterval                 2
CPXPARAM_TimeLimit                               5
CPXPARAM_MIP_Limits_CutsFactor                   16
Tried aggregator 1 time.
MIP Presolve eliminated 595 rows and 0 columns.
MIP Presolve added 1190 rows and 0 columns.
MIP Presolve modified 10 coefficients.
Reduced MIP has 2515 rows, 2985 columns, and 7755 nonzeros.
Reduced MIP has 1195 binaries, 0 generals, 0 SOSs, and 0 indicators.
Presolve time = 0.00 sec. (4.53 ticks)
Probing fixed 0 vars, tightened 5487 bounds.
Probing time = 0.01 sec. (18.38 ticks)
Tried aggregator 2 times.
Detecting symmetries...
MIP Presolve modified 1206 coefficients.
Aggregator did 10 substitutions.
Reduced MIP has 2505 rows, 2975 columns, and 7735 nonzeros.
Reduced MIP has 1195 binaries, 0 generals, 0 SOSs, and 0 indicators.
Presolve time = 0.00 sec. (6.66 ticks)
Probing fixed 0 vars, tightened 2401 bounds.
Probing time = 0.00 sec. (6.41 ticks)
Clique table members: 190.
MIP emphasis: balance optimality and feasibility.
MIP search method: dynamic search.
Parallel mode: deterministic, using up to 8 threads.
Root relaxation solution time = 0.01 sec. (9.71 ticks)

        Nodes                                         Cuts/
   Node  Left     Objective  IInf  Best Integer    Best Bound    ItCnt     Gap

      0     0   348385.3466   472                 348385.3466      882         
      0     0   583577.4049   435                   Cuts: 726     1819         
      0     0   824993.5875   562                   Cuts: 726     2502         
      0     0   932712.4918   622                   Cuts: 626     3044         
*     0+    0                       1.01740e+07   932712.4918            90.83%
*     0+    0                      7973370.0000   932712.4918            88.30%
      0     0  1002423.8828   644  7973370.0000     Cuts: 619     3546   87.43%
      0     0  1059557.3062   655  7973370.0000     Cuts: 520     4054   86.71%
Detecting symmetries...
      0     0  1099296.8723   686  7973370.0000     Cuts: 388     4486   86.21%
      0     0  1112297.1204   701  7973370.0000     Cuts: 341     4834   86.05%
      0     0  1123511.4184   683  7973370.0000     Cuts: 215     5085   85.91%
      0     0  1131216.1237   740  7973370.0000     Cuts: 240     5347   85.81%
*     0+    0                      2869313.0000  1131216.1237            60.58%
      0     0  1141658.8916   739  2869313.0000     Cuts: 219     5600   60.21%
      0     0  1146702.8121   748  2869313.0000     Cuts: 214     5826   60.04%
      0     0  1150888.5991   748  2869313.0000     Cuts: 183     6063   59.89%
      0     0  1153339.9728   761  2869313.0000     Cuts: 137     6297   59.80%
      0     0  1155367.3727   774  2869313.0000     Cuts: 128     6508   59.73%
      0     0  1157825.0098   768  2869313.0000     Cuts: 108     6686   59.65%
      0     0  1160486.5375   773  2869313.0000     Cuts: 100     6855   59.56%
      0     0  1161936.4038   787  2869313.0000     Cuts: 107     7009   59.50%
      0     0  1163241.8446   789  2869313.0000      Cuts: 78     7131   59.46%
      0     0  1164331.7609   802  2869313.0000      Cuts: 58     7255   59.42%
      0     0  1165294.7581   802  2869313.0000     Cuts: 103     7373   59.39%
      0     0  1166355.3071   802  2869313.0000      Cuts: 89     7491   59.35%
      0     0  1167449.6817   793  2869313.0000     Cuts: 102     7619   59.31%
      0     0  1168194.4024   781  2869313.0000      Cuts: 47     7731   59.29%
      0     0  1168988.1000   785  2869313.0000      Cuts: 63     7836   59.26%
      0     0  1169485.8335   792  2869313.0000      Cuts: 65     7929   59.24%
      0     0  1170447.8921   807  2869313.0000      Cuts: 50     8033   59.21%
      0     0  1171049.0920   802  2869313.0000      Cuts: 93     8107   59.19%
      0     0  1171223.5732   807  2869313.0000      Cuts: 57     8163   59.18%
      0     0  1171385.9915   803  2869313.0000      Cuts: 32     8206   59.18%
Detecting symmetries...
      0     2  1171385.9919   811  2869313.0000  1171385.9915     8206   59.18%
Elapsed time = 3.73 sec. (6506.82 ticks, tree = 0.02 MB, solutions = 3)
      1     3  1171955.7170   805  2869313.0000  1172057.9525     8248   59.15%
      3     4  1172411.6849   800  2869313.0000  1172608.1080     8361   59.13%
      6     7  1251779.6334   788  2869313.0000  1172608.1080     9170   59.13%
     11     4  1211116.3355   785  2869313.0000  1176375.7788     8600   59.00%
     18    16  1213895.6736   796  2869313.0000  1177015.5198    10148   58.98%
     37    25  1293926.1497   801  2869313.0000  1178369.4035    11315   58.93%
     75    47  1261678.5915   790  2869313.0000  1179629.5127    13704   58.89%

Clique cuts applied:  1
Cover cuts applied:  12
Implied bound cuts applied:  23
Flow cuts applied:  1021
Mixed integer rounding cuts applied:  526
Multi commodity flow cuts applied:  85
Disjunctive cuts applied:  0
Cone linearizations applied:  0

Root node processing (before b&c):
  Real time             =    3.72 sec. (6498.80 ticks)
Parallel b&c, 8 threads:
  Real time             =    1.28 sec. (2373.82 ticks)
  Sync time (average)   =    0.39 sec.
  Wait time (average)   =    0.00 sec.
                          ------------
Total (root+branch&cut) =    5.00 sec. (8872.62 ticks)
Gap: 58.89%
Upper bound: 2.86931e+06
Lower bound: 1.17963e+06
End of CPLEX run. Time: 5.0039 seconds

===== New CPLEX run =====
Instance: /home/yorig/tuner/mpils-tests/instances/miplib/easy/lotsize.mps
Config: /scratch/yorig/mpils-results-grid-seconds-5-no-mip-start/easy/16proc/seed-3/4_lotsize_seed-3_20260502_223218/iterated_local_search/run_3_worker_9/ils_config_11786637341296962253.prm
========================

Selected objective sense:  MINIMIZE
Selected objective  name:  R1921
Selected RHS        name:  B
Selected bound      name:  BOUND
Version identifier: 22.1.2.0 | 2024-11-26 | 0edbb82fd
CPXPARAM_Threads                                 8
CPXPARAM_Parallel                                1
CPXPARAM_MIP_Strategy_SubAlgorithm               2
CPXPARAM_MIP_Strategy_VariableSelect             2
CPXPARAM_MIP_Cuts_FlowCovers                     -1
CPXPARAM_MIP_Cuts_Implied                        1
CPXPARAM_MIP_Limits_GomoryCand                   150
CPXPARAM_MIP_Cuts_Gomory                         -1
CPXPARAM_MIP_Cuts_PathCut                        -1
CPXPARAM_MIP_Cuts_Disjunctive                    2
CPXPARAM_MIP_Strategy_BBInterval                 2
CPXPARAM_TimeLimit                               5
CPXPARAM_MIP_Limits_CutsFactor                   16
Tried aggregator 1 time.
MIP Presolve eliminated 595 rows and 0 columns.
MIP Presolve added 1190 rows and 0 columns.
MIP Presolve modified 10 coefficients.
Reduced MIP has 2515 rows, 2985 columns, and 7755 nonzeros.
Reduced MIP has 1195 binaries, 0 generals, 0 SOSs, and 0 indicators.
Presolve time = 0.00 sec. (4.53 ticks)
Probing fixed 0 vars, tightened 5487 bounds.
Probing time = 0.01 sec. (18.38 ticks)
Tried aggregator 2 times.
Detecting symmetries...
MIP Presolve modified 1206 coefficients.
Aggregator did 10 substitutions.
Reduced MIP has 2505 rows, 2975 columns, and 7735 nonzeros.
Reduced MIP has 1195 binaries, 0 generals, 0 SOSs, and 0 indicators.
Presolve time = 0.00 sec. (6.66 ticks)
Probing fixed 0 vars, tightened 2401 bounds.
Probing time = 0.00 sec. (6.41 ticks)
Clique table members: 190.
MIP emphasis: balance optimality and feasibility.
MIP search method: dynamic search.
Parallel mode: deterministic, using up to 8 threads.
Root relaxation solution time = 0.01 sec. (9.71 ticks)

        Nodes                                         Cuts/
   Node  Left     Objective  IInf  Best Integer    Best Bound    ItCnt     Gap

      0     0   348385.3466   472                 348385.3466      882         
      0     0   418077.1943   557                   Cuts: 726     1548         
      0     0   604489.9728   556                   Cuts: 726     2119         
      0     0   709222.6566   630                   Cuts: 726     2619         
*     0+    0                       1.01740e+07   709222.6566            93.03%
*     0+    0                      7973370.0000   709222.6566            91.11%
      0     0   854717.2484   615  7973370.0000     Cuts: 726     3217   89.28%
      0     0   935596.2230   693  7973370.0000     Cuts: 726     3798   88.27%
Detecting symmetries...
      0     0  1040351.7900   688  7973370.0000     Cuts: 726     4446   86.95%
      0     0  1095325.2051   720  7973370.0000     Cuts: 692     5002   86.26%
      0     0  1162088.7480   749  7973370.0000     Cuts: 683     5610   85.43%
      0     0  1200254.5072   729  7973370.0000     Cuts: 581     6067   84.95%
      0     0  1230551.1895   735  7973370.0000     Cuts: 454     6578   84.57%
*     0+    0                      2869313.0000  1230551.1895            57.11%
      0     0  1253214.0378   767  2869313.0000     Cuts: 387     7008   56.32%
      0     0  1266844.1255   744  2869313.0000     Cuts: 389     7440   55.85%
      0     0  1276978.2146   762  2869313.0000     Cuts: 280     7757   55.50%
      0     0  1284852.2713   777  2869313.0000     Cuts: 264     7993   55.22%
      0     0  1291183.7360   743  2869313.0000     Cuts: 198     8217   55.00%
      0     0  1298142.9441   744  2869313.0000     Cuts: 170     8465   54.76%
      0     0  1300444.0757   752  2869313.0000     Cuts: 196     8642   54.68%
      0     0  1303585.5325   756  2869313.0000     Cuts: 122     8811   54.57%
      0     0  1305561.4534   763  2869313.0000     Cuts: 118     8954   54.50%
      0     0  1307599.9857   759  2869313.0000     Cuts: 135     9097   54.43%
      0     0  1308449.9200   750  2869313.0000      Cuts: 67     9216   54.40%
      0     0  1309968.4841   760  2869313.0000      Cuts: 82     9336   54.35%
      0     0  1311114.4943   756  2869313.0000      Cuts: 74     9453   54.31%
      0     0  1311728.8092   767  2869313.0000     Cuts: 102     9566   54.28%
      0     0  1312082.1424   776  2869313.0000      Cuts: 58     9635   54.27%
      0     0  1312261.1553   778  2869313.0000      Cuts: 29     9676   54.27%
      0     0  1312462.9463   771  2869313.0000   MIRcuts: 23     9715   54.26%
*     0+    0                      2818093.0000  1312462.9463            53.43%
Detecting symmetries...
      0     2  1312462.9463   783  2818093.0000  1312462.9463     9715   53.43%
Elapsed time = 3.83 sec. (6414.26 ticks, tree = 0.02 MB, solutions = 4)
      1     3  1313200.3298   780  2818093.0000  1313246.5139     9808   53.40%
      2     4  1313478.2966   772  2818093.0000  1313509.8176     9842   53.39%
      4     3  1342970.1367   771  2818093.0000  1314267.0755     9910   53.36%
      7     5  1332087.0287   766  2818093.0000  1315433.8904    10020   53.32%
*    10+    4                      2704461.0000  1317025.9249            51.30%
*    10+    4                      2667646.0000  1317025.9249            50.63%
     10     9  1365119.0265   787  2667646.0000  1317025.9249    11090   50.63%
*    11+    4                      2446338.0000  1317025.9249            46.16%
*    11+    4                      2444802.0000  1317025.9249            46.13%
*    14+    4                      2377110.0000  1317025.9249            44.60%
*    14+    4                      2323035.0000  1317025.9249            43.31%
*    14+    4                      2298599.0000  1317025.9249            42.70%
*    15+    4                      2251237.0000  1317025.9249            41.50%
*    15+    4                      2219727.0000  1317025.9249            40.67%
     15    14  1360402.4716   789  2219727.0000  1317025.9249    13062   40.67%
*    16+    4                      2213947.0000  1317025.9249            40.51%
*    16+    4                      2210511.0000  1317025.9249            40.42%
     24    16  1353567.3290   791  2210511.0000  1317025.9249    14197   40.42%

Clique cuts applied:  1
Cover cuts applied:  10
Implied bound cuts applied:  36
Mixed integer rounding cuts applied:  1593
Multi commodity flow cuts applied:  46
Disjunctive cuts applied:  0
Cone linearizations applied:  0

Root node processing (before b&c):
  Real time             =    3.81 sec. (6407.18 ticks)
Parallel b&c, 8 threads:
  Real time             =    1.19 sec. (2234.54 ticks)
  Sync time (average)   =    0.38 sec.
  Wait time (average)   =    0.00 sec.
                          ------------
Total (root+branch&cut) =    5.00 sec. (8641.72 ticks)
Gap: 40.42%
Upper bound: 2.21051e+06
Lower bound: 1.31703e+06
End of CPLEX run. Time: 5.0063 seconds

===== New CPLEX run =====
Instance: /home/yorig/tuner/mpils-tests/instances/miplib/easy/lotsize.mps
Config: /scratch/yorig/mpils-results-grid-seconds-5-no-mip-start/easy/16proc/seed-3/4_lotsize_seed-3_20260502_223218/iterated_local_search/run_3_worker_9/ils_config_10453770773371000727.prm
========================

Selected objective sense:  MINIMIZE
Selected objective  name:  R1921
Selected RHS        name:  B
Selected bound      name:  BOUND
Version identifier: 22.1.2.0 | 2024-11-26 | 0edbb82fd
CPXPARAM_Threads                                 8
CPXPARAM_Parallel                                1
CPXPARAM_MIP_Strategy_SubAlgorithm               2
CPXPARAM_MIP_Strategy_VariableSelect             2
CPXPARAM_MIP_Cuts_FlowCovers                     -1
CPXPARAM_MIP_Cuts_Implied                        1
CPXPARAM_MIP_Limits_GomoryCand                   150
CPXPARAM_MIP_Cuts_Gomory                         -1
CPXPARAM_MIP_Cuts_PathCut                        -1
CPXPARAM_MIP_Cuts_Disjunctive                    2
CPXPARAM_Emphasis_MIP                            4
CPXPARAM_MIP_Strategy_BBInterval                 2
CPXPARAM_TimeLimit                               5
CPXPARAM_MIP_Limits_CutsFactor                   16
Tried aggregator 1 time.
MIP Presolve eliminated 595 rows and 0 columns.
MIP Presolve added 1190 rows and 0 columns.
MIP Presolve modified 10 coefficients.
Reduced MIP has 2515 rows, 2985 columns, and 7755 nonzeros.
Reduced MIP has 1195 binaries, 0 generals, 0 SOSs, and 0 indicators.
Presolve time = 0.00 sec. (4.53 ticks)
Probing fixed 0 vars, tightened 5487 bounds.
Probing time = 0.01 sec. (18.38 ticks)
Tried aggregator 2 times.
Detecting symmetries...
MIP Presolve modified 1206 coefficients.
Aggregator did 10 substitutions.
Reduced MIP has 2505 rows, 2975 columns, and 7735 nonzeros.
Reduced MIP has 1195 binaries, 0 generals, 0 SOSs, and 0 indicators.
Presolve time = 0.00 sec. (6.66 ticks)
Probing fixed 0 vars, tightened 2401 bounds.
Probing time = 0.00 sec. (6.41 ticks)
Clique table members: 190.
MIP emphasis: hidden feasible solutions.
MIP search method: dynamic search.
Parallel mode: deterministic, using up to 8 threads.
Root relaxation solution time = 0.01 sec. (9.71 ticks)

        Nodes                                         Cuts/
   Node  Left     Objective  IInf  Best Integer    Best Bound    ItCnt     Gap

      0     0   348385.3466   472                 348385.3466      882         
      0     0   418077.1943   557                   Cuts: 726     1548         
      0     0   604489.9728   556                   Cuts: 726     2119         
      0     0   709222.6566   630                   Cuts: 726     2619         
*     0+    0                       1.01740e+07   709222.6566            93.03%
*     0+    0                      7973370.0000   709222.6566            91.11%
      0     0   854717.2484   615  7973370.0000     Cuts: 726     3217   89.28%
      0     0   935596.2230   693  7973370.0000     Cuts: 726     3798   88.27%
Detecting symmetries...
      0     0  1040351.7900   688  7973370.0000     Cuts: 726     4446   86.95%
      0     0  1095325.2051   720  7973370.0000     Cuts: 692     5002   86.26%
      0     0  1162088.7480   749  7973370.0000     Cuts: 683     5610   85.43%
      0     0  1200254.5072   729  7973370.0000     Cuts: 581     6067   84.95%
      0     0  1230551.1895   735  7973370.0000     Cuts: 454     6578   84.57%
*     0+    0                      2869313.0000  1230551.1895            57.11%
      0     0  1253214.0378   767  2869313.0000     Cuts: 387     7008   56.32%
      0     0  1266844.1255   744  2869313.0000     Cuts: 389     7440   55.85%
      0     0  1276978.2146   762  2869313.0000     Cuts: 280     7757   55.50%
      0     0  1284852.2713   777  2869313.0000     Cuts: 264     7993   55.22%
      0     0  1291183.7360   743  2869313.0000     Cuts: 198     8217   55.00%
      0     0  1298142.9441   744  2869313.0000     Cuts: 170     8465   54.76%
      0     0  1300444.0757   752  2869313.0000     Cuts: 196     8642   54.68%
      0     0  1303585.5325   756  2869313.0000     Cuts: 122     8811   54.57%
      0     0  1305561.4534   763  2869313.0000     Cuts: 118     8954   54.50%
      0     0  1307599.9857   759  2869313.0000     Cuts: 135     9097   54.43%
      0     0  1308449.9200   750  2869313.0000      Cuts: 67     9216   54.40%
      0     0  1309968.4841   760  2869313.0000      Cuts: 82     9336   54.35%
      0     0  1311114.4943   756  2869313.0000      Cuts: 74     9453   54.31%
      0     0  1311728.8092   767  2869313.0000     Cuts: 102     9566   54.28%
      0     0  1312082.1424   776  2869313.0000      Cuts: 58     9635   54.27%
      0     0  1312261.1553   778  2869313.0000      Cuts: 29     9676   54.27%
      0     0  1312462.9463   771  2869313.0000   MIRcuts: 23     9715   54.26%
*     0+    0                      2818093.0000  1312462.9463            53.43%
*     0+    0                      2114522.0000  1312462.9463            37.93%
Detecting symmetries...

Clique cuts applied:  1
Cover cuts applied:  10
Implied bound cuts applied:  36
Mixed integer rounding cuts applied:  1485
Multi commodity flow cuts applied:  45
Disjunctive cuts applied:  0
Cone linearizations applied:  0

Root node processing (before b&c):
  Real time             =    5.01 sec. (7686.16 ticks)
Parallel b&c, 8 threads:
  Real time             =    0.00 sec. (0.00 ticks)
  Sync time (average)   =    0.00 sec.
  Wait time (average)   =    0.00 sec.
                          ------------
Total (root+branch&cut) =    5.01 sec. (7686.16 ticks)
Gap: 37.93%
Upper bound: 2.11452e+06
Lower bound: 1.31246e+06
End of CPLEX run. Time: 5.01447 seconds

===== New CPLEX run =====
Instance: /home/yorig/tuner/mpils-tests/instances/miplib/easy/lotsize.mps
Config: /scratch/yorig/mpils-results-grid-seconds-5-no-mip-start/easy/16proc/seed-3/4_lotsize_seed-3_20260502_223218/iterated_local_search/run_3_worker_9/ils_config_11611284553923977651.prm
========================

Selected objective sense:  MINIMIZE
Selected objective  name:  R1921
Selected RHS        name:  B
Selected bound      name:  BOUND
Version identifier: 22.1.2.0 | 2024-11-26 | 0edbb82fd
CPXPARAM_Threads                                 8
CPXPARAM_Parallel                                1
CPXPARAM_MIP_Strategy_SubAlgorithm               2
CPXPARAM_MIP_Strategy_VariableSelect             -1
CPXPARAM_MIP_Cuts_FlowCovers                     -1
CPXPARAM_MIP_Cuts_Implied                        1
CPXPARAM_MIP_Limits_GomoryCand                   150
CPXPARAM_MIP_Cuts_Gomory                         -1
CPXPARAM_MIP_Cuts_PathCut                        -1
CPXPARAM_MIP_Cuts_Disjunctive                    2
CPXPARAM_Emphasis_MIP                            4
CPXPARAM_MIP_Strategy_BBInterval                 2
CPXPARAM_TimeLimit                               5
CPXPARAM_MIP_Limits_CutsFactor                   16
Tried aggregator 1 time.
MIP Presolve eliminated 595 rows and 0 columns.
MIP Presolve added 1190 rows and 0 columns.
MIP Presolve modified 10 coefficients.
Reduced MIP has 2515 rows, 2985 columns, and 7755 nonzeros.
Reduced MIP has 1195 binaries, 0 generals, 0 SOSs, and 0 indicators.
Presolve time = 0.00 sec. (4.53 ticks)
Probing fixed 0 vars, tightened 5487 bounds.
Probing time = 0.01 sec. (18.38 ticks)
Tried aggregator 2 times.
Detecting symmetries...
MIP Presolve modified 1206 coefficients.
Aggregator did 10 substitutions.
Reduced MIP has 2505 rows, 2975 columns, and 7735 nonzeros.
Reduced MIP has 1195 binaries, 0 generals, 0 SOSs, and 0 indicators.
Presolve time = 0.01 sec. (6.66 ticks)
Probing fixed 0 vars, tightened 2401 bounds.
Probing time = 0.01 sec. (6.41 ticks)
Clique table members: 190.
MIP emphasis: hidden feasible solutions.
MIP search method: dynamic search.
Parallel mode: deterministic, using up to 8 threads.
Root relaxation solution time = 0.01 sec. (9.71 ticks)

        Nodes                                         Cuts/
   Node  Left     Objective  IInf  Best Integer    Best Bound    ItCnt     Gap

      0     0   348385.3466   472                 348385.3466      882         
      0     0   418077.1943   557                   Cuts: 726     1548         
      0     0   604489.9728   556                   Cuts: 726     2119         
      0     0   709222.6566   630                   Cuts: 726     2619         
*     0+    0                       1.01740e+07   709222.6566            93.03%
*     0+    0                      7973370.0000   709222.6566            91.11%
      0     0   854717.2484   615  7973370.0000     Cuts: 726     3217   89.28%
      0     0   935596.2230   693  7973370.0000     Cuts: 726     3798   88.27%
Detecting symmetries...
      0     0  1040351.7900   688  7973370.0000     Cuts: 726     4446   86.95%
      0     0  1095325.2051   720  7973370.0000     Cuts: 692     5002   86.26%
      0     0  1162088.7480   749  7973370.0000     Cuts: 683     5610   85.43%
      0     0  1200254.5072   729  7973370.0000     Cuts: 581     6067   84.95%
      0     0  1230551.1895   735  7973370.0000     Cuts: 454     6578   84.57%
      0     0  1253214.0378   767  7973370.0000     Cuts: 387     7008   84.28%
      0     0  1266612.1571   753  7973370.0000     Cuts: 365     7395   84.11%
      0     0  1277165.1099   768  7973370.0000     Cuts: 279     7726   83.98%
      0     0  1285396.1155   774  7973370.0000     Cuts: 238     7978   83.88%
      0     0  1290516.9993   757  7973370.0000     Cuts: 194     8219   83.81%
      0     0  1294385.8360   756  7973370.0000     Cuts: 188     8418   83.77%
      0     0  1297250.0290   749  7973370.0000     Cuts: 141     8585   83.73%
      0     0  1299003.9319   759  7973370.0000     Cuts: 114     8723   83.71%
      0     0  1299765.3402   755  7973370.0000     Cuts: 144     8800   83.70%
      0     0  1300910.2597   763  7973370.0000      Cuts: 71     8899   83.68%
      0     0  1301447.8166   763  7973370.0000      Cuts: 90     8984   83.68%
      0     0  1301885.6248   757  7973370.0000      Cuts: 44     9044   83.67%
      0     0  1302198.4636   767  7973370.0000      Cuts: 44     9082   83.67%
      0     0  1302418.1519   776  7973370.0000      Cuts: 12     9104   83.67%
      0     0  1302570.4896   767  7973370.0000      Cuts: 19     9135   83.66%
Detecting symmetries...
      0     2  1302570.4896   767  7973370.0000  1302570.4896     9135   83.66%
Elapsed time = 4.70 sec. (7002.05 ticks, tree = 0.02 MB, solutions = 2)
     13    15  1304915.1261   758  7973370.0000  1302615.7133     9375   83.66%
*    23+    1                      4750564.0000  1302615.7133            72.58%
*    23+    1                      4375367.0000  1302615.7133            70.23%
*    25+    1                      3219744.0000  1302615.7133            59.54%
*    27+    1                      3056318.0000  1302615.7133            57.38%
*    27+    1                      3047887.0000  1302615.7133            57.26%
*    31+    3                      3047887.0000  1302615.7133            57.26%

Clique cuts applied:  1
Cover cuts applied:  10
Implied bound cuts applied:  30
Mixed integer rounding cuts applied:  1539
Multi commodity flow cuts applied:  43
Disjunctive cuts applied:  0
Cone linearizations applied:  0

Root node processing (before b&c):
  Real time             =    4.69 sec. (6995.00 ticks)
Parallel b&c, 8 threads:
  Real time             =    0.32 sec. (554.63 ticks)
  Sync time (average)   =    0.03 sec.
  Wait time (average)   =    0.00 sec.
                          ------------
Total (root+branch&cut) =    5.01 sec. (7549.62 ticks)
Gap: 57.26%
Upper bound: 3.04789e+06
Lower bound: 1.30269e+06
End of CPLEX run. Time: 5.00728 seconds

===== New CPLEX run =====
Instance: /home/yorig/tuner/mpils-tests/instances/miplib/easy/lotsize.mps
Config: /scratch/yorig/mpils-results-grid-seconds-5-no-mip-start/easy/16proc/seed-3/4_lotsize_seed-3_20260502_223218/iterated_local_search/run_3_worker_9/ils_config_3880036615771517932.prm
========================

Selected objective sense:  MINIMIZE
Selected objective  name:  R1921
Selected RHS        name:  B
Selected bound      name:  BOUND
Version identifier: 22.1.2.0 | 2024-11-26 | 0edbb82fd
CPXPARAM_Threads                                 8
CPXPARAM_Parallel                                1
CPXPARAM_MIP_Strategy_SubAlgorithm               2
CPXPARAM_MIP_Strategy_VariableSelect             3
CPXPARAM_MIP_Cuts_FlowCovers                     -1
CPXPARAM_MIP_Cuts_Implied                        1
CPXPARAM_MIP_Limits_GomoryCand                   150
CPXPARAM_MIP_Cuts_Gomory                         -1
CPXPARAM_MIP_Cuts_PathCut                        -1
CPXPARAM_MIP_Cuts_Disjunctive                    2
CPXPARAM_Emphasis_MIP                            4
CPXPARAM_MIP_Strategy_BBInterval                 2
CPXPARAM_TimeLimit                               5
CPXPARAM_MIP_Limits_CutsFactor                   16
Tried aggregator 1 time.
MIP Presolve eliminated 595 rows and 0 columns.
MIP Presolve added 1190 rows and 0 columns.
MIP Presolve modified 10 coefficients.
Reduced MIP has 2515 rows, 2985 columns, and 7755 nonzeros.
Reduced MIP has 1195 binaries, 0 generals, 0 SOSs, and 0 indicators.
Presolve time = 0.00 sec. (4.53 ticks)
Probing fixed 0 vars, tightened 5487 bounds.
Probing time = 0.01 sec. (18.38 ticks)
Tried aggregator 2 times.
Detecting symmetries...
MIP Presolve modified 1206 coefficients.
Aggregator did 10 substitutions.
Reduced MIP has 2505 rows, 2975 columns, and 7735 nonzeros.
Reduced MIP has 1195 binaries, 0 generals, 0 SOSs, and 0 indicators.
Presolve time = 0.00 sec. (6.66 ticks)
Probing fixed 0 vars, tightened 2401 bounds.
Probing time = 0.00 sec. (6.41 ticks)
Clique table members: 190.
MIP emphasis: hidden feasible solutions.
MIP search method: dynamic search.
Parallel mode: deterministic, using up to 8 threads.
Root relaxation solution time = 0.01 sec. (9.71 ticks)

        Nodes                                         Cuts/
   Node  Left     Objective  IInf  Best Integer    Best Bound    ItCnt     Gap

      0     0   348385.3466   472                 348385.3466      882         
      0     0   418077.1943   557                   Cuts: 726     1548         
      0     0   604489.9728   556                   Cuts: 726     2119         
      0     0   709222.6566   630                   Cuts: 726     2619         
*     0+    0                       1.01740e+07   709222.6566            93.03%
*     0+    0                      7973370.0000   709222.6566            91.11%
      0     0   854717.2484   615  7973370.0000     Cuts: 726     3217   89.28%
      0     0   935596.2230   693  7973370.0000     Cuts: 726     3798   88.27%
Detecting symmetries...
      0     0  1040351.7900   688  7973370.0000     Cuts: 726     4446   86.95%
      0     0  1095325.2051   720  7973370.0000     Cuts: 692     5002   86.26%
      0     0  1162088.7480   749  7973370.0000     Cuts: 683     5610   85.43%
      0     0  1200254.5072   729  7973370.0000     Cuts: 581     6067   84.95%
      0     0  1230551.1895   735  7973370.0000     Cuts: 454     6578   84.57%
*     0+    0                      1973822.0000  1230551.1895            37.66%
      0     0  1253214.0378   767  1973822.0000     Cuts: 387     7008   36.51%
      0     0  1267251.8545   753  1973822.0000     Cuts: 402     7442   35.80%
      0     0  1277697.8975   769  1973822.0000     Cuts: 309     7756   35.27%
      0     0  1285782.8546   785  1973822.0000     Cuts: 288     8040   34.86%
      0     0  1291018.5094   762  1973822.0000     Cuts: 209     8257   34.59%
      0     0  1293797.0472   766  1973822.0000     Cuts: 177     8431   34.45%
      0     0  1297341.4542   776  1973822.0000     Cuts: 143     8581   34.27%
      0     0  1298697.4977   764  1973822.0000     Cuts: 117     8722   34.20%
      0     0  1301309.1758   761  1973822.0000     Cuts: 162     8859   34.07%
      0     0  1302317.0798   751  1973822.0000      Cuts: 86     8958   34.02%
      0     0  1303060.3297   759  1973822.0000      Cuts: 54     9053   33.98%
      0     0  1304074.2265   751  1973822.0000      Cuts: 53     9135   33.93%
      0     0  1304571.7408   765  1973822.0000      Cuts: 41     9198   33.91%
      0     0  1304846.0600   767  1973822.0000      Cuts: 43     9252   33.89%
      0     0  1305267.7985   776  1973822.0000      Cuts: 43     9323   33.87%
      0     0  1305536.7388   783  1973822.0000      Cuts: 55     9371   33.86%
*     0+    0                      1720070.0000  1305536.7388            24.10%
Detecting symmetries...
      0     2  1305536.7388   783  1720070.0000  1305536.7388     9371   24.10%
Elapsed time = 4.82 sec. (7255.96 ticks, tree = 0.02 MB, solutions = 4)

Clique cuts applied:  1
Cover cuts applied:  10
Implied bound cuts applied:  29
Mixed integer rounding cuts applied:  1672
Multi commodity flow cuts applied:  45
Disjunctive cuts applied:  0
Cone linearizations applied:  0

Root node processing (before b&c):
  Real time             =    4.81 sec. (7248.74 ticks)
Parallel b&c, 8 threads:
  Real time             =    0.19 sec. (373.95 ticks)
  Sync time (average)   =    0.13 sec.
  Wait time (average)   =    0.00 sec.
                          ------------
Total (root+branch&cut) =    5.00 sec. (7622.68 ticks)
Gap: 24.1%
Upper bound: 1.72007e+06
Lower bound: 1.30558e+06
End of CPLEX run. Time: 5.00561 seconds
